32      4       
10      10      10      10      
0       0       0       0       0       8       2       3       4       5       6       7       10      20      
4       1       0       1       1       6       9       11      14      15      16      31      
9       2       1       4       0       6       12      13      15      16      17      18      
10      8       0       2       5       4       8       17      19      23      
9       5       3       4       0       2       9       15      
7       4       0       6       4       6       13      18      25      28      29      31      
6       2       2       0       5       6       13      18      25      28      29      31      
2       4       4       8       0       4       13      18      25      31      
4       0       4       4       5       6       18      21      25      26      28      30      
5       5       0       5       5       6       16      25      27      28      30      31      
10      5       0       1       5       3       13      25      28      
10      3       0       3       3       5       22      25      28      29      30      
8       5       0       5       3       4       21      26      27      30      
5       3       0       4       2       4       22      25      27      28      
8       3       0       8       4       3       22      23      29      
7       0       5       1       3       3       24      26      29      
4       0       2       7       4       3       25      28      29      
10      4       0       4       4       2       24      27      
1       3       7       0       4       2       24      25      
2       4       6       5       0       2       24      29      
4       5       0       2       2       1       22      
8       6       0       3       2       1       24      
3       4       3       0       7       1       26      
10      6       3       0       5       1       32      
1       3       0       6       3       1       32      
7       0       5       2       5       1       32      
7       4       0       6       6       1       32      
4       0       7       4       6       1       32      
10      4       0       3       6       1       32      
3       3       0       4       2       1       32      
7       4       0       2       3       1       32      
0       0       0       0       0       0       
